
Gurobi 10.0.2 (linux64, Python) logging started Mon Aug 21 22:36:58 2023

Set parameter Username
Set parameter LogFile to value "gurobi.log"
Academic license - for non-commercial use only - expires 2024-08-14
